(set-logic HORN)
(declare-fun Q_n0 (Int Int Int Int Int Int Int Int Int Int Int Int) Bool)
(declare-fun Q_exit (Int Int Int Int Int Int Int Int Int Int Int Int) Bool)
(declare-fun Q_n1 (Int Int Int Int Int Int Int Int Int Int Int Int) Bool)
(declare-fun Q_n1_1 (Int Int Int Int Int Int Int Int Int Int Int Int) Bool)
(declare-fun Q_n1_1x (Int Int Int Int Int Int Int Int Int Int Int Int) Bool)
(declare-fun Q_n1x (Int Int Int Int Int Int Int Int Int Int Int Int) Bool)
(declare-fun Q_n2 (Int Int Int Int Int Int Int Int Int Int Int Int) Bool)
(declare-fun Q_n2_1 (Int Int Int Int Int Int Int Int Int Int Int Int) Bool)
(declare-fun Q_n2x (Int Int Int Int Int Int Int Int Int Int Int Int) Bool)
(declare-fun Q_n3 (Int Int Int Int Int Int Int Int Int Int Int Int) Bool)
(declare-fun Q_n4 (Int Int Int Int Int Int Int Int Int Int Int Int) Bool)
(declare-fun Q_n4_1 (Int Int Int Int Int Int Int Int Int Int Int Int) Bool)
(declare-fun Q_n4_1b (Int Int Int Int Int Int Int Int Int Int Int Int) Bool)
(declare-fun Q_n4b (Int Int Int Int Int Int Int Int Int Int Int Int) Bool)
(declare-fun Q_n5 (Int Int Int Int Int Int Int Int Int Int Int Int) Bool)
(declare-fun Q_n5_1 (Int Int Int Int Int Int Int Int Int Int Int Int) Bool)
(declare-fun Q_n5b (Int Int Int Int Int Int Int Int Int Int Int Int) Bool)
(assert (forall ((ro Int) (ra Int) (rb Int) (rm Int) (xo Int) (xa Int) (xb Int) (xm Int) (yo Int) (ya Int) (yb Int) (ym Int)) (=> (and (= ro ra) (= ra rb) (= rb rm) (= xo xa) (= xa xb) (= xb xm) (= yo ya) (= ya yb) (= yb ym)) (Q_n0 ro ra rb rm xo xa xb xm yo ya yb ym))))
(assert (forall ((ro Int) (ra Int) (rb Int) (rm Int) (xo Int) (xa Int) (xb Int) (xm Int) (yo Int) (ya Int) (yb Int) (ym Int)) (=> (Q_n0 ro ra rb rm xo xa xb xm yo ya yb ym) true)))
(assert (forall ((ro Int) (ra Int) (rb Int) (rm Int) (xo Int) (xa Int) (xb Int) (xm Int) (yo Int) (ya Int) (yb Int) (ym Int)) (=> (Q_n0 ro ra rb rm xo xa xb xm yo ya yb ym) (Q_n1 ro ra rb rm xo xa xb xm yo ya yb ym))))
(assert (forall ((ro Int) (ra Int) (rb Int) (rm Int) (xo Int) (xa Int) (xb Int) (xm Int) (yo Int) (ya Int) (yb Int) (ym Int)) (=> (Q_n0 ro ra rb rm xo xa xb xm yo ya yb ym) (Q_n2 ro ra rb rm xo xa xb xm yo ya yb ym))))
(assert (forall ((ro Int) (ra Int) (rb Int) (rm Int) (xo Int) (xa Int) (xb Int) (xm Int) (yo Int) (ya Int) (yb Int) (ym Int)) (=> (Q_n1 ro ra rb rm xo xa xb xm yo ya yb ym) true)))
(assert (forall ((ro Int) (ra Int) (rb Int) (rm Int) (xo Int) (xa Int) (xb Int) (xm Int) (yo Int) (ya Int) (yb Int) (ym Int)) (=> (Q_n1 ro ra rb rm xo xa xb xm yo ya yb ym) (Q_n1x ro ra rb rm xo xa xb xm yo ya yb ym))))
(assert (forall ((ro Int) (ra Int) (rb Int) (rm Int) (xo Int) (xa Int) (xb Int) (xm Int) (yo Int) (ya Int) (yb Int) (ym Int)) (=> (Q_n1_1 ro ra rb rm xo xa xb xm yo ya yb ym) true)))
(assert (forall ((ro Int) (ra Int) (rb Int) (rm Int) (xo Int) (xa Int) (xb Int) (xm Int) (yo Int) (ya Int) (yb Int) (ym Int)) (=> (Q_n1_1 ro ra rb rm xo xa xb xm yo ya yb ym) (Q_n1_1x ro ra rb rm xo xa xb xm yo ya yb ym))))
(assert (forall ((ro Int) (ra Int) (rb Int) (rm Int) (xo Int) (xa Int) (xb Int) (xm Int) (yo Int) (ya Int) (yb Int) (ym Int) (ro1 Int) (ra1 Int)) (=> (Q_n1_1x ro ra rb rm xo xa xb xm yo ya yb ym) true)))
(assert (forall ((ro Int) (ra Int) (rb Int) (rm Int) (xo Int) (xa Int) (xb Int) (xm Int) (yo Int) (ya Int) (yb Int) (ym Int) (ro1 Int) (ra1 Int)) (=> (and (= ra1 1) (= ro1 1) (Q_n1_1x ro ra rb rm xo xa xb xm yo ya yb ym)) (Q_n3 ro1 ra1 rb rm xo xa xb xm yo ya yb ym))))
(assert (forall ((ro Int) (ra Int) (rb Int) (rm Int) (xo Int) (xa Int) (xb Int) (xm Int) (yo Int) (ya Int) (yb Int) (ym Int)) (=> (Q_n1x ro ra rb rm xo xa xb xm yo ya yb ym) (= (= xo 1) (= xa 1)))))
(assert (forall ((ro Int) (ra Int) (rb Int) (rm Int) (xo Int) (xa Int) (xb Int) (xm Int) (yo Int) (ya Int) (yb Int) (ym Int)) (=> (and (= xa 1) (= xo 1) (Q_n1x ro ra rb rm xo xa xb xm yo ya yb ym)) (Q_n1_1 ro ra rb rm xo xa xb xm yo ya yb ym))))
(assert (forall ((ro Int) (ra Int) (rb Int) (rm Int) (xo Int) (xa Int) (xb Int) (xm Int) (yo Int) (ya Int) (yb Int) (ym Int)) (=> (Q_n2 ro ra rb rm xo xa xb xm yo ya yb ym) true)))
(assert (forall ((ro Int) (ra Int) (rb Int) (rm Int) (xo Int) (xa Int) (xb Int) (xm Int) (yo Int) (ya Int) (yb Int) (ym Int)) (=> (Q_n2 ro ra rb rm xo xa xb xm yo ya yb ym) (Q_n2x ro ra rb rm xo xa xb xm yo ya yb ym))))
(assert (forall ((ro Int) (ra Int) (rb Int) (rm Int) (xo Int) (xa Int) (xb Int) (xm Int) (yo Int) (ya Int) (yb Int) (ym Int)) (=> (Q_n2_1 ro ra rb rm xo xa xb xm yo ya yb ym) true)))
(assert (forall ((ro Int) (ra Int) (rb Int) (rm Int) (xo Int) (xa Int) (xb Int) (xm Int) (yo Int) (ya Int) (yb Int) (ym Int)) (=> (Q_n2_1 ro ra rb rm xo xa xb xm yo ya yb ym) (Q_n3 ro ra rb rm xo xa xb xm yo ya yb ym))))
(assert (forall ((ro Int) (ra Int) (rb Int) (rm Int) (xo Int) (xa Int) (xb Int) (xm Int) (yo Int) (ya Int) (yb Int) (ym Int)) (=> (Q_n2x ro ra rb rm xo xa xb xm yo ya yb ym) (= (not (= xo 1)) (not (= xa 1))))))
(assert (forall ((ro Int) (ra Int) (rb Int) (rm Int) (xo Int) (xa Int) (xb Int) (xm Int) (yo Int) (ya Int) (yb Int) (ym Int)) (=> (and (not (= xa 1)) (not (= xo 1)) (Q_n2x ro ra rb rm xo xa xb xm yo ya yb ym)) (Q_n2_1 ro ra rb rm xo xa xb xm yo ya yb ym))))
(assert (forall ((ro Int) (ra Int) (rb Int) (rm Int) (xo Int) (xa Int) (xb Int) (xm Int) (yo Int) (ya Int) (yb Int) (ym Int)) (=> (Q_n3 ro ra rb rm xo xa xb xm yo ya yb ym) true)))
(assert (forall ((ro Int) (ra Int) (rb Int) (rm Int) (xo Int) (xa Int) (xb Int) (xm Int) (yo Int) (ya Int) (yb Int) (ym Int)) (=> (Q_n3 ro ra rb rm xo xa xb xm yo ya yb ym) (Q_n4 ro ra rb rm xo xa xb xm yo ya yb ym))))
(assert (forall ((ro Int) (ra Int) (rb Int) (rm Int) (xo Int) (xa Int) (xb Int) (xm Int) (yo Int) (ya Int) (yb Int) (ym Int)) (=> (Q_n3 ro ra rb rm xo xa xb xm yo ya yb ym) (Q_n5 ro ra rb rm xo xa xb xm yo ya yb ym))))
(assert (forall ((ro Int) (ra Int) (rb Int) (rm Int) (xo Int) (xa Int) (xb Int) (xm Int) (yo Int) (ya Int) (yb Int) (ym Int)) (=> (Q_n4 ro ra rb rm xo xa xb xm yo ya yb ym) true)))
(assert (forall ((ro Int) (ra Int) (rb Int) (rm Int) (xo Int) (xa Int) (xb Int) (xm Int) (yo Int) (ya Int) (yb Int) (ym Int)) (=> (Q_n4 ro ra rb rm xo xa xb xm yo ya yb ym) (Q_n4b ro ra rb rm xo xa xb xm yo ya yb ym))))
(assert (forall ((ro Int) (ra Int) (rb Int) (rm Int) (xo Int) (xa Int) (xb Int) (xm Int) (yo Int) (ya Int) (yb Int) (ym Int)) (=> (Q_n4_1 ro ra rb rm xo xa xb xm yo ya yb ym) true)))
(assert (forall ((ro Int) (ra Int) (rb Int) (rm Int) (xo Int) (xa Int) (xb Int) (xm Int) (yo Int) (ya Int) (yb Int) (ym Int)) (=> (Q_n4_1 ro ra rb rm xo xa xb xm yo ya yb ym) (Q_n4_1b ro ra rb rm xo xa xb xm yo ya yb ym))))
(assert (forall ((ro Int) (ra Int) (rb Int) (rm Int) (xo Int) (xa Int) (xb Int) (xm Int) (yo Int) (ya Int) (yb Int) (ym Int) (rb1 Int) (rm1 Int)) (=> (Q_n4_1b ro ra rb rm xo xa xb xm yo ya yb ym) true)))
(assert (forall ((ro Int) (ra Int) (rb Int) (rm Int) (xo Int) (xa Int) (xb Int) (xm Int) (yo Int) (ya Int) (yb Int) (ym Int) (rb1 Int) (rm1 Int)) (=> (and (= rm1 2) (= rb1 2) (Q_n4_1b ro ra rb rm xo xa xb xm yo ya yb ym)) (Q_exit ro ra rb1 rm1 xo xa xb xm yo ya yb ym))))
(assert (forall ((ro Int) (ra Int) (rb Int) (rm Int) (xo Int) (xa Int) (xb Int) (xm Int) (yo Int) (ya Int) (yb Int) (ym Int)) (=> (Q_n4b ro ra rb rm xo xa xb xm yo ya yb ym) (= (and (= xb 1) (= yb 1)) (and (= xm 1) (= ym 1))))))
(assert (forall ((ro Int) (ra Int) (rb Int) (rm Int) (xo Int) (xa Int) (xb Int) (xm Int) (yo Int) (ya Int) (yb Int) (ym Int)) (=> (and (and (= xm 1) (= ym 1)) (and (= xb 1) (= yb 1)) (Q_n4b ro ra rb rm xo xa xb xm yo ya yb ym)) (Q_n4_1 ro ra rb rm xo xa xb xm yo ya yb ym))))
(assert (forall ((ro Int) (ra Int) (rb Int) (rm Int) (xo Int) (xa Int) (xb Int) (xm Int) (yo Int) (ya Int) (yb Int) (ym Int)) (=> (Q_n5 ro ra rb rm xo xa xb xm yo ya yb ym) true)))
(assert (forall ((ro Int) (ra Int) (rb Int) (rm Int) (xo Int) (xa Int) (xb Int) (xm Int) (yo Int) (ya Int) (yb Int) (ym Int)) (=> (Q_n5 ro ra rb rm xo xa xb xm yo ya yb ym) (Q_n5b ro ra rb rm xo xa xb xm yo ya yb ym))))
(assert (forall ((ro Int) (ra Int) (rb Int) (rm Int) (xo Int) (xa Int) (xb Int) (xm Int) (yo Int) (ya Int) (yb Int) (ym Int)) (=> (Q_n5_1 ro ra rb rm xo xa xb xm yo ya yb ym) true)))
(assert (forall ((ro Int) (ra Int) (rb Int) (rm Int) (xo Int) (xa Int) (xb Int) (xm Int) (yo Int) (ya Int) (yb Int) (ym Int)) (=> (Q_n5_1 ro ra rb rm xo xa xb xm yo ya yb ym) (Q_exit ro ra rb rm xo xa xb xm yo ya yb ym))))
(assert (forall ((ro Int) (ra Int) (rb Int) (rm Int) (xo Int) (xa Int) (xb Int) (xm Int) (yo Int) (ya Int) (yb Int) (ym Int)) (=> (Q_n5b ro ra rb rm xo xa xb xm yo ya yb ym) (= (or (not (= xb 1)) (not (= yb 1))) (or (not (= xm 1)) (not (= ym 1)))))))
(assert (forall ((ro Int) (ra Int) (rb Int) (rm Int) (xo Int) (xa Int) (xb Int) (xm Int) (yo Int) (ya Int) (yb Int) (ym Int)) (=> (and (or (not (= xm 1)) (not (= ym 1))) (or (not (= xb 1)) (not (= yb 1))) (Q_n5b ro ra rb rm xo xa xb xm yo ya yb ym)) (Q_n5_1 ro ra rb rm xo xa xb xm yo ya yb ym))))
(assert (forall ((ro Int) (ra Int) (rb Int) (rm Int) (xo Int) (xa Int) (xb Int) (xm Int) (yo Int) (ya Int) (yb Int) (ym Int)) (=> (Q_exit ro ra rb rm xo xa xb xm yo ya yb ym) (and (and (or (= ro ra) (= rm ra)) (or (= ro rb) (= rm rb)) (or (not (= ro ra)) (not (= ro rb)) (= rm ro))) (and (or (= xo xa) (= xm xa)) (or (= xo xb) (= xm xb)) (or (not (= xo xa)) (not (= xo xb)) (= xm xo))) (and (or (= yo ya) (= ym ya)) (or (= yo yb) (= ym yb)) (or (not (= yo ya)) (not (= yo yb)) (= ym yo)))))))
(assert (forall ((ro Int) (ra Int) (rb Int) (rm Int) (xo Int) (xa Int) (xb Int) (xm Int) (yo Int) (ya Int) (yb Int) (ym Int)) (=> (Q_n1_1 ro ra rb rm xo xa xb xm yo ya yb ym) (and (and (or (= ro ra) (= rm ra)) (or (= ro rb) (= rm rb)) (or (not (= ro ra)) (not (= ro rb)) (= rm ro))) (and (or (= xo xa) (= xm xa)) (or (= xo xb) (= xm xb)) (or (not (= xo xa)) (not (= xo xb)) (= xm xo))) (and (or (= yo ya) (= ym ya)) (or (= yo yb) (= ym yb)) (or (not (= yo ya)) (not (= yo yb)) (= ym yo)))))))
(assert (forall ((ro Int) (ra Int) (rb Int) (rm Int) (xo Int) (xa Int) (xb Int) (xm Int) (yo Int) (ya Int) (yb Int) (ym Int)) (=> (Q_n3 ro ra rb rm xo xa xb xm yo ya yb ym) (and (and (or (= ro ra) (= rm ra)) (or (= ro rb) (= rm rb)) (or (not (= ro ra)) (not (= ro rb)) (= rm ro))) (and (or (= xo xa) (= xm xa)) (or (= xo xb) (= xm xb)) (or (not (= xo xa)) (not (= xo xb)) (= xm xo))) (and (or (= yo ya) (= ym ya)) (or (= yo yb) (= ym yb)) (or (not (= yo ya)) (not (= yo yb)) (= ym yo)))))))
(assert (forall ((ro Int) (ra Int) (rb Int) (rm Int) (xo Int) (xa Int) (xb Int) (xm Int) (yo Int) (ya Int) (yb Int) (ym Int)) (=> (Q_n2_1 ro ra rb rm xo xa xb xm yo ya yb ym) (and (and (or (= ro ra) (= rm ra)) (or (= ro rb) (= rm rb)) (or (not (= ro ra)) (not (= ro rb)) (= rm ro))) (and (or (= xo xa) (= xm xa)) (or (= xo xb) (= xm xb)) (or (not (= xo xa)) (not (= xo xb)) (= xm xo))) (and (or (= yo ya) (= ym ya)) (or (= yo yb) (= ym yb)) (or (not (= yo ya)) (not (= yo yb)) (= ym yo)))))))
(assert (forall ((ro Int) (ra Int) (rb Int) (rm Int) (xo Int) (xa Int) (xb Int) (xm Int) (yo Int) (ya Int) (yb Int) (ym Int)) (=> (Q_n4_1 ro ra rb rm xo xa xb xm yo ya yb ym) (and (and (or (= ro ra) (= rm ra)) (or (= ro rb) (= rm rb)) (or (not (= ro ra)) (not (= ro rb)) (= rm ro))) (and (or (= xo xa) (= xm xa)) (or (= xo xb) (= xm xb)) (or (not (= xo xa)) (not (= xo xb)) (= xm xo))) (and (or (= yo ya) (= ym ya)) (or (= yo yb) (= ym yb)) (or (not (= yo ya)) (not (= yo yb)) (= ym yo)))))))
(assert (forall ((ro Int) (ra Int) (rb Int) (rm Int) (xo Int) (xa Int) (xb Int) (xm Int) (yo Int) (ya Int) (yb Int) (ym Int)) (=> (Q_n5_1 ro ra rb rm xo xa xb xm yo ya yb ym) (and (and (or (= ro ra) (= rm ra)) (or (= ro rb) (= rm rb)) (or (not (= ro ra)) (not (= ro rb)) (= rm ro))) (and (or (= xo xa) (= xm xa)) (or (= xo xb) (= xm xb)) (or (not (= xo xa)) (not (= xo xb)) (= xm xo))) (and (or (= yo ya) (= ym ya)) (or (= yo yb) (= ym yb)) (or (not (= yo ya)) (not (= yo yb)) (= ym yo)))))))
(check-sat)
